SYSTEM = Default VASP Calculation
ENCUT = 500
NSW = 100
IBRION = 2
POTIM = 0.5
EDIFF = 1e-5
PREC = High
NELM = 100
NELMIN = 4
ISMEAR = 0
SIGMA = 0.05
LWAVE = .FALSE.
LCHARG = .FALSE.
LVTOT = .FALSE.
