! Transition State / NEB Calculation
! Generated by Auto-Workflow

! === General Settings ===
ENCUT = {encut}
NSW = {nsw}
IBRION = {ibrion}
EDIFF = {ediff}
PREC = {prec}
ISIF = 0

! === NEB Parameters ===
ICHAIN = 0
IMAGES = 5
SPRING = -5.0
LCLIMB = .TRUE.

! === Electronic Structure ===
NELM = {nelm}
NELMIN = {nelmin}
ISMEAR = {ismear}
SIGMA = {sigma}

! === Output ===
LWAVE = .FALSE.
LCHARG = .FALSE.
LORBIT = 11
