ISMEAR=0
SIGMA=0.05
ISPIN=2
ALGO=normal
ENCUT=400
EDIFF=1E-05
NELM=500
IBRION=2
POTIM=0.5
NSW=2000
EDIFFG=-0.02
ISYM=0
ISIF=2
NPAR=4     
IVDW=12
LWAVE=.F.
LCHARG =.F.
ISTART=0
ICHARG=2
LREAL=A