ISTART=0
ICHARG=2
ISPIN=2
NPAR=4
ALGO=normal
ENCUT=400
EDIFF=1E-05
NELM=5000
ISIF=2
IBRION=-1
NSW=0
EDIFFG=-0.02
LREAL=A
ISMEAR=0
SIGMA=0.05
LORBIT=11
LWAVE=.T.
LCHARG=.T.
LAECHG =.T.

NEDOS=1000
IVDW=12