! Frequency Analysis / Vibrational Properties
! Generated by Auto-Workflow

! === General Settings ===
ENCUT = {encut}
NSW = 1
IBRION = 5
POTIM = {potim}
EDIFF = {ediff}
PREC = {prec}

! === Electronic Structure ===
NELM = {nelm}
NELMIN = {nelmin}
ISMEAR = 0
SIGMA = 0.1

! === Output ===
NFREE = 2
LWAVE = .FALSE.
LCHARG = .FALSE.
LORBIT = 11
NPAR = 4
