! Adsorbate System / Surface Chemistry
! Generated by Auto-Workflow

! === General Settings ===
ENCUT = {encut}
NSW = {nsw}
IBRION = {ibrion}
POTIM = {potim}
EDIFF = {ediff}
PREC = {prec}
ISIF = 2

! === Electronic Structure ===
NELM = {nelm}
NELMIN = {nelmin}
ISMEAR = {ismear}
SIGMA = {sigma}
LOPTICS = .FALSE.

! === Dipole Correction ===
LDIPOL = .TRUE.
IDIPOL = 3
DIPOL = 0.5 0.5 0.5

! === Output ===
LWAVE = .FALSE.
LCHARG = .FALSE.
LORBIT = 11
